NAME           C:\Bruker\Hvattum\knapsack\Problems\class4\100-10-08.mps
ROWS
 N  OBJ
 L  CONSTR1
 L  CONSTR2
 L  CONSTR3
 L  CONSTR4
 L  CONSTR5
 L  CONSTR6
 L  CONSTR7
 L  CONSTR8
 L  CONSTR9
 L  CONSTR10
COLUMNS
    INT0001   'MARKER'  'INTORG'
    X1        OBJ       778
    X1        CONSTR1   823
    X1        CONSTR2   794
    X1        CONSTR3   1000
    X1        CONSTR4   861
    X1        CONSTR5   398
    X1        CONSTR6   677
    X1        CONSTR7   420
    X1        CONSTR8   387
    X1        CONSTR9   744
    X1        CONSTR10  890
    X2        OBJ       748
    X2        CONSTR1   297
    X2        CONSTR2   167
    X2        CONSTR3   343
    X2        CONSTR4   950
    X2        CONSTR5   118
    X2        CONSTR6   581
    X2        CONSTR7   939
    X2        CONSTR8   21
    X2        CONSTR9   27
    X2        CONSTR10  786
    X3        OBJ       567
    X3        CONSTR1   543
    X3        CONSTR2   88
    X3        CONSTR3   896
    X3        CONSTR4   605
    X3        CONSTR5   923
    X3        CONSTR6   34
    X3        CONSTR7   545
    X3        CONSTR8   399
    X3        CONSTR9   118
    X3        CONSTR10  512
    X4        OBJ       769
    X4        CONSTR1   954
    X4        CONSTR2   929
    X4        CONSTR3   319
    X4        CONSTR4   262
    X4        CONSTR5   898
    X4        CONSTR6   600
    X4        CONSTR7   600
    X4        CONSTR8   995
    X4        CONSTR9   692
    X4        CONSTR10  776
    X5        OBJ       412
    X5        CONSTR1   358
    X5        CONSTR2   206
    X5        CONSTR3   451
    X5        CONSTR4   408
    X5        CONSTR5   253
    X5        CONSTR6   33
    X5        CONSTR7   315
    X5        CONSTR8   728
    X5        CONSTR9   434
    X5        CONSTR10  430
    X6        OBJ       605
    X6        CONSTR1   187
    X6        CONSTR2   777
    X6        CONSTR3   952
    X6        CONSTR4   125
    X6        CONSTR5   733
    X6        CONSTR6   214
    X6        CONSTR7   957
    X6        CONSTR8   917
    X6        CONSTR9   99
    X6        CONSTR10  396
    X7        OBJ       530
    X7        CONSTR1   465
    X7        CONSTR2   327
    X7        CONSTR3   851
    X7        CONSTR4   256
    X7        CONSTR5   834
    X7        CONSTR6   823
    X7        CONSTR7   189
    X7        CONSTR8   386
    X7        CONSTR9   950
    X7        CONSTR10  57
    X8        OBJ       963
    X8        CONSTR1   477
    X8        CONSTR2   392
    X8        CONSTR3   44
    X8        CONSTR4   522
    X8        CONSTR5   694
    X8        CONSTR6   669
    X8        CONSTR7   454
    X8        CONSTR8   746
    X8        CONSTR9   797
    X8        CONSTR10  505
    X9        OBJ       437
    X9        CONSTR1   124
    X9        CONSTR2   171
    X9        CONSTR3   623
    X9        CONSTR4   132
    X9        CONSTR5   105
    X9        CONSTR6   785
    X9        CONSTR7   408
    X9        CONSTR8   350
    X9        CONSTR9   726
    X9        CONSTR10  493
    X10       OBJ       821
    X10       CONSTR1   709
    X10       CONSTR2   881
    X10       CONSTR3   786
    X10       CONSTR4   955
    X10       CONSTR5   103
    X10       CONSTR6   912
    X10       CONSTR7   203
    X10       CONSTR8   71
    X10       CONSTR9   688
    X10       CONSTR10  863
    X11       OBJ       772
    X11       CONSTR1   797
    X11       CONSTR2   883
    X11       CONSTR3   785
    X11       CONSTR4   914
    X11       CONSTR5   127
    X11       CONSTR6   535
    X11       CONSTR7   325
    X11       CONSTR8   919
    X11       CONSTR9   755
    X11       CONSTR10  456
    X12       OBJ       937
    X12       CONSTR1   685
    X12       CONSTR2   492
    X12       CONSTR3   123
    X12       CONSTR4   395
    X12       CONSTR5   960
    X12       CONSTR6   231
    X12       CONSTR7   861
    X12       CONSTR8   646
    X12       CONSTR9   769
    X12       CONSTR10  44
    X13       OBJ       638
    X13       CONSTR1   37
    X13       CONSTR2   162
    X13       CONSTR3   411
    X13       CONSTR4   203
    X13       CONSTR5   780
    X13       CONSTR6   145
    X13       CONSTR7   782
    X13       CONSTR8   197
    X13       CONSTR9   136
    X13       CONSTR10  542
    X14       OBJ       726
    X14       CONSTR1   362
    X14       CONSTR2   774
    X14       CONSTR3   30
    X14       CONSTR4   724
    X14       CONSTR5   568
    X14       CONSTR6   491
    X14       CONSTR7   156
    X14       CONSTR8   532
    X14       CONSTR9   363
    X14       CONSTR10  576
    X15       OBJ       369
    X15       CONSTR1   60
    X15       CONSTR2   198
    X15       CONSTR3   704
    X15       CONSTR4   122
    X15       CONSTR5   751
    X15       CONSTR6   384
    X15       CONSTR7   419
    X15       CONSTR8   235
    X15       CONSTR9   5
    X15       CONSTR10  790
    X16       OBJ       887
    X16       CONSTR1   126
    X16       CONSTR2   52
    X16       CONSTR3   568
    X16       CONSTR4   689
    X16       CONSTR5   804
    X16       CONSTR6   692
    X16       CONSTR7   994
    X16       CONSTR8   459
    X16       CONSTR9   68
    X16       CONSTR10  112
    X17       OBJ       908
    X17       CONSTR1   834
    X17       CONSTR2   721
    X17       CONSTR3   656
    X17       CONSTR4   822
    X17       CONSTR5   290
    X17       CONSTR6   946
    X17       CONSTR7   26
    X17       CONSTR8   166
    X17       CONSTR9   271
    X17       CONSTR10  206
    X18       OBJ       433
    X18       CONSTR1   313
    X18       CONSTR2   144
    X18       CONSTR3   447
    X18       CONSTR4   308
    X18       CONSTR5   334
    X18       CONSTR6   443
    X18       CONSTR7   314
    X18       CONSTR8   279
    X18       CONSTR9   305
    X18       CONSTR10  748
    X19       OBJ       989
    X19       CONSTR1   912
    X19       CONSTR2   518
    X19       CONSTR3   967
    X19       CONSTR4   564
    X19       CONSTR5   276
    X19       CONSTR6   635
    X19       CONSTR7   641
    X19       CONSTR8   610
    X19       CONSTR9   858
    X19       CONSTR10  542
    X20       OBJ       728
    X20       CONSTR1   22
    X20       CONSTR2   516
    X20       CONSTR3   433
    X20       CONSTR4   863
    X20       CONSTR5   952
    X20       CONSTR6   257
    X20       CONSTR7   840
    X20       CONSTR8   190
    X20       CONSTR9   67
    X20       CONSTR10  829
    X21       OBJ       863
    X21       CONSTR1   768
    X21       CONSTR2   408
    X21       CONSTR3   733
    X21       CONSTR4   116
    X21       CONSTR5   897
    X21       CONSTR6   854
    X21       CONSTR7   140
    X21       CONSTR8   12
    X21       CONSTR9   20
    X21       CONSTR10  297
    X22       OBJ       906
    X22       CONSTR1   343
    X22       CONSTR2   190
    X22       CONSTR3   379
    X22       CONSTR4   676
    X22       CONSTR5   724
    X22       CONSTR6   736
    X22       CONSTR7   683
    X22       CONSTR8   969
    X22       CONSTR9   29
    X22       CONSTR10  122
    X23       OBJ       587
    X23       CONSTR1   547
    X23       CONSTR2   86
    X23       CONSTR3   582
    X23       CONSTR4   744
    X23       CONSTR5   397
    X23       CONSTR6   773
    X23       CONSTR7   601
    X23       CONSTR8   635
    X23       CONSTR9   981
    X23       CONSTR10  146
    X24       OBJ       544
    X24       CONSTR1   288
    X24       CONSTR2   360
    X24       CONSTR3   376
    X24       CONSTR4   248
    X24       CONSTR5   60
    X24       CONSTR6   695
    X24       CONSTR7   569
    X24       CONSTR8   159
    X24       CONSTR9   830
    X24       CONSTR10  398
    X25       OBJ       666
    X25       CONSTR1   162
    X25       CONSTR2   409
    X25       CONSTR3   583
    X25       CONSTR4   228
    X25       CONSTR5   241
    X25       CONSTR6   693
    X25       CONSTR7   39
    X25       CONSTR8   186
    X25       CONSTR9   954
    X25       CONSTR10  306
    X26       OBJ       878
    X26       CONSTR1   426
    X26       CONSTR2   502
    X26       CONSTR3   173
    X26       CONSTR4   191
    X26       CONSTR5   983
    X26       CONSTR6   351
    X26       CONSTR7   856
    X26       CONSTR8   11
    X26       CONSTR9   706
    X26       CONSTR10  701
    X27       OBJ       814
    X27       CONSTR1   167
    X27       CONSTR2   757
    X27       CONSTR3   28
    X27       CONSTR4   651
    X27       CONSTR5   768
    X27       CONSTR6   721
    X27       CONSTR7   119
    X27       CONSTR8   866
    X27       CONSTR9   291
    X27       CONSTR10  397
    X28       OBJ       697
    X28       CONSTR1   693
    X28       CONSTR2   214
    X28       CONSTR3   245
    X28       CONSTR4   539
    X28       CONSTR5   473
    X28       CONSTR6   573
    X28       CONSTR7   356
    X28       CONSTR8   645
    X28       CONSTR9   683
    X28       CONSTR10  207
    X29       OBJ       867
    X29       CONSTR1   124
    X29       CONSTR2   875
    X29       CONSTR3   370
    X29       CONSTR4   739
    X29       CONSTR5   991
    X29       CONSTR6   774
    X29       CONSTR7   951
    X29       CONSTR8   294
    X29       CONSTR9   842
    X29       CONSTR10  347
    X30       OBJ       803
    X30       CONSTR1   262
    X30       CONSTR2   569
    X30       CONSTR3   436
    X30       CONSTR4   560
    X30       CONSTR5   691
    X30       CONSTR6   806
    X30       CONSTR7   728
    X30       CONSTR8   576
    X30       CONSTR9   699
    X30       CONSTR10  763
    X31       OBJ       842
    X31       CONSTR1   994
    X31       CONSTR2   865
    X31       CONSTR3   452
    X31       CONSTR4   488
    X31       CONSTR5   290
    X31       CONSTR6   647
    X31       CONSTR7   663
    X31       CONSTR8   319
    X31       CONSTR9   993
    X31       CONSTR10  989
    X32       OBJ       936
    X32       CONSTR1   761
    X32       CONSTR2   270
    X32       CONSTR3   501
    X32       CONSTR4   677
    X32       CONSTR5   315
    X32       CONSTR6   985
    X32       CONSTR7   733
    X32       CONSTR8   278
    X32       CONSTR9   421
    X32       CONSTR10  494
    X33       OBJ       834
    X33       CONSTR1   95
    X33       CONSTR2   61
    X33       CONSTR3   515
    X33       CONSTR4   811
    X33       CONSTR5   97
    X33       CONSTR6   173
    X33       CONSTR7   413
    X33       CONSTR8   720
    X33       CONSTR9   588
    X33       CONSTR10  267
    X34       OBJ       1032
    X34       CONSTR1   856
    X34       CONSTR2   523
    X34       CONSTR3   57
    X34       CONSTR4   279
    X34       CONSTR5   979
    X34       CONSTR6   914
    X34       CONSTR7   266
    X34       CONSTR8   550
    X34       CONSTR9   804
    X34       CONSTR10  543
    X35       OBJ       779
    X35       CONSTR1   253
    X35       CONSTR2   273
    X35       CONSTR3   295
    X35       CONSTR4   581
    X35       CONSTR5   516
    X35       CONSTR6   179
    X35       CONSTR7   501
    X35       CONSTR8   818
    X35       CONSTR9   616
    X35       CONSTR10  191
    X36       OBJ       840
    X36       CONSTR1   939
    X36       CONSTR2   802
    X36       CONSTR3   476
    X36       CONSTR4   114
    X36       CONSTR5   734
    X36       CONSTR6   219
    X36       CONSTR7   735
    X36       CONSTR8   569
    X36       CONSTR9   873
    X36       CONSTR10  91
    X37       OBJ       960
    X37       CONSTR1   411
    X37       CONSTR2   266
    X37       CONSTR3   465
    X37       CONSTR4   578
    X37       CONSTR5   241
    X37       CONSTR6   398
    X37       CONSTR7   524
    X37       CONSTR8   854
    X37       CONSTR9   821
    X37       CONSTR10  883
    X38       OBJ       845
    X38       CONSTR1   844
    X38       CONSTR2   11
    X38       CONSTR3   395
    X38       CONSTR4   551
    X38       CONSTR5   171
    X38       CONSTR6   633
    X38       CONSTR7   820
    X38       CONSTR8   856
    X38       CONSTR9   117
    X38       CONSTR10  62
    X39       OBJ       705
    X39       CONSTR1   464
    X39       CONSTR2   812
    X39       CONSTR3   672
    X39       CONSTR4   749
    X39       CONSTR5   870
    X39       CONSTR6   910
    X39       CONSTR7   977
    X39       CONSTR8   611
    X39       CONSTR9   628
    X39       CONSTR10  191
    X40       OBJ       783
    X40       CONSTR1   203
    X40       CONSTR2   325
    X40       CONSTR3   571
    X40       CONSTR4   884
    X40       CONSTR5   281
    X40       CONSTR6   431
    X40       CONSTR7   674
    X40       CONSTR8   689
    X40       CONSTR9   733
    X40       CONSTR10  759
    X41       OBJ       618
    X41       CONSTR1   839
    X41       CONSTR2   873
    X41       CONSTR3   239
    X41       CONSTR4   390
    X41       CONSTR5   723
    X41       CONSTR6   69
    X41       CONSTR7   945
    X41       CONSTR8   715
    X41       CONSTR9   203
    X41       CONSTR10  903
    X42       OBJ       993
    X42       CONSTR1   814
    X42       CONSTR2   414
    X42       CONSTR3   482
    X42       CONSTR4   569
    X42       CONSTR5   549
    X42       CONSTR6   479
    X42       CONSTR7   743
    X42       CONSTR8   893
    X42       CONSTR9   873
    X42       CONSTR10  131
    X43       OBJ       793
    X43       CONSTR1   695
    X43       CONSTR2   597
    X43       CONSTR3   706
    X43       CONSTR4   840
    X43       CONSTR5   112
    X43       CONSTR6   220
    X43       CONSTR7   94
    X43       CONSTR8   692
    X43       CONSTR9   439
    X43       CONSTR10  198
    X44       OBJ       1022
    X44       CONSTR1   808
    X44       CONSTR2   421
    X44       CONSTR3   306
    X44       CONSTR4   767
    X44       CONSTR5   869
    X44       CONSTR6   40
    X44       CONSTR7   581
    X44       CONSTR8   545
    X44       CONSTR9   414
    X44       CONSTR10  926
    X45       OBJ       891
    X45       CONSTR1   490
    X45       CONSTR2   561
    X45       CONSTR3   386
    X45       CONSTR4   849
    X45       CONSTR5   316
    X45       CONSTR6   116
    X45       CONSTR7   300
    X45       CONSTR8   475
    X45       CONSTR9   842
    X45       CONSTR10  292
    X46       OBJ       592
    X46       CONSTR1   954
    X46       CONSTR2   52
    X46       CONSTR3   277
    X46       CONSTR4   438
    X46       CONSTR5   429
    X46       CONSTR6   377
    X46       CONSTR7   14
    X46       CONSTR8   61
    X46       CONSTR9   554
    X46       CONSTR10  523
    X47       OBJ       730
    X47       CONSTR1   731
    X47       CONSTR2   707
    X47       CONSTR3   306
    X47       CONSTR4   405
    X47       CONSTR5   413
    X47       CONSTR6   914
    X47       CONSTR7   471
    X47       CONSTR8   845
    X47       CONSTR9   816
    X47       CONSTR10  714
    X48       OBJ       532
    X48       CONSTR1   217
    X48       CONSTR2   232
    X48       CONSTR3   268
    X48       CONSTR4   378
    X48       CONSTR5   108
    X48       CONSTR6   621
    X48       CONSTR7   234
    X48       CONSTR8   768
    X48       CONSTR9   888
    X48       CONSTR10  667
    X49       OBJ       698
    X49       CONSTR1   943
    X49       CONSTR2   606
    X49       CONSTR3   163
    X49       CONSTR4   993
    X49       CONSTR5   8
    X49       CONSTR6   73
    X49       CONSTR7   8
    X49       CONSTR8   430
    X49       CONSTR9   555
    X49       CONSTR10  461
    X50       OBJ       575
    X50       CONSTR1   21
    X50       CONSTR2   935
    X50       CONSTR3   972
    X50       CONSTR4   743
    X50       CONSTR5   149
    X50       CONSTR6   562
    X50       CONSTR7   82
    X50       CONSTR8   65
    X50       CONSTR9   58
    X50       CONSTR10  577
    X51       OBJ       512
    X51       CONSTR1   569
    X51       CONSTR2   363
    X51       CONSTR3   651
    X51       CONSTR4   299
    X51       CONSTR5   486
    X51       CONSTR6   165
    X51       CONSTR7   185
    X51       CONSTR8   834
    X51       CONSTR9   202
    X51       CONSTR10  733
    X52       OBJ       741
    X52       CONSTR1   255
    X52       CONSTR2   352
    X52       CONSTR3   181
    X52       CONSTR4   134
    X52       CONSTR5   634
    X52       CONSTR6   173
    X52       CONSTR7   660
    X52       CONSTR8   564
    X52       CONSTR9   172
    X52       CONSTR10  128
    X53       OBJ       647
    X53       CONSTR1   498
    X53       CONSTR2   735
    X53       CONSTR3   436
    X53       CONSTR4   20
    X53       CONSTR5   994
    X53       CONSTR6   37
    X53       CONSTR7   205
    X53       CONSTR8   191
    X53       CONSTR9   793
    X53       CONSTR10  262
    X54       OBJ       1042
    X54       CONSTR1   816
    X54       CONSTR2   679
    X54       CONSTR3   357
    X54       CONSTR4   541
    X54       CONSTR5   480
    X54       CONSTR6   945
    X54       CONSTR7   192
    X54       CONSTR8   616
    X54       CONSTR9   650
    X54       CONSTR10  151
    X55       OBJ       422
    X55       CONSTR1   522
    X55       CONSTR2   908
    X55       CONSTR3   269
    X55       CONSTR4   185
    X55       CONSTR5   391
    X55       CONSTR6   195
    X55       CONSTR7   902
    X55       CONSTR8   6
    X55       CONSTR9   150
    X55       CONSTR10  309
    X56       OBJ       846
    X56       CONSTR1   332
    X56       CONSTR2   559
    X56       CONSTR3   508
    X56       CONSTR4   107
    X56       CONSTR5   557
    X56       CONSTR6   826
    X56       CONSTR7   609
    X56       CONSTR8   493
    X56       CONSTR9   696
    X56       CONSTR10  658
    X57       OBJ       962
    X57       CONSTR1   862
    X57       CONSTR2   748
    X57       CONSTR3   242
    X57       CONSTR4   934
    X57       CONSTR5   712
    X57       CONSTR6   237
    X57       CONSTR7   296
    X57       CONSTR8   308
    X57       CONSTR9   148
    X57       CONSTR10  653
    X58       OBJ       754
    X58       CONSTR1   335
    X58       CONSTR2   448
    X58       CONSTR3   816
    X58       CONSTR4   416
    X58       CONSTR5   440
    X58       CONSTR6   631
    X58       CONSTR7   325
    X58       CONSTR8   33
    X58       CONSTR9   763
    X58       CONSTR10  129
    X59       OBJ       766
    X59       CONSTR1   800
    X59       CONSTR2   366
    X59       CONSTR3   422
    X59       CONSTR4   644
    X59       CONSTR5   179
    X59       CONSTR6   779
    X59       CONSTR7   599
    X59       CONSTR8   183
    X59       CONSTR9   177
    X59       CONSTR10  214
    X60       OBJ       867
    X60       CONSTR1   151
    X60       CONSTR2   441
    X60       CONSTR3   353
    X60       CONSTR4   479
    X60       CONSTR5   59
    X60       CONSTR6   655
    X60       CONSTR7   711
    X60       CONSTR8   776
    X60       CONSTR9   34
    X60       CONSTR10  590
    X61       OBJ       733
    X61       CONSTR1   177
    X61       CONSTR2   912
    X61       CONSTR3   766
    X61       CONSTR4   178
    X61       CONSTR5   206
    X61       CONSTR6   422
    X61       CONSTR7   767
    X61       CONSTR8   932
    X61       CONSTR9   745
    X61       CONSTR10  244
    X62       OBJ       856
    X62       CONSTR1   286
    X62       CONSTR2   254
    X62       CONSTR3   417
    X62       CONSTR4   607
    X62       CONSTR5   245
    X62       CONSTR6   97
    X62       CONSTR7   447
    X62       CONSTR8   356
    X62       CONSTR9   606
    X62       CONSTR10  289
    X63       OBJ       957
    X63       CONSTR1   971
    X63       CONSTR2   866
    X63       CONSTR3   764
    X63       CONSTR4   402
    X63       CONSTR5   337
    X63       CONSTR6   411
    X63       CONSTR7   310
    X63       CONSTR8   879
    X63       CONSTR9   875
    X63       CONSTR10  338
    X64       OBJ       795
    X64       CONSTR1   42
    X64       CONSTR2   811
    X64       CONSTR3   549
    X64       CONSTR4   278
    X64       CONSTR5   79
    X64       CONSTR6   569
    X64       CONSTR7   784
    X64       CONSTR8   384
    X64       CONSTR9   75
    X64       CONSTR10  671
    X65       OBJ       491
    X65       CONSTR1   262
    X65       CONSTR2   506
    X65       CONSTR3   731
    X65       CONSTR4   98
    X65       CONSTR5   40
    X65       CONSTR6   466
    X65       CONSTR7   607
    X65       CONSTR8   458
    X65       CONSTR9   311
    X65       CONSTR10  407
    X66       OBJ       697
    X66       CONSTR1   454
    X66       CONSTR2   469
    X66       CONSTR3   112
    X66       CONSTR4   836
    X66       CONSTR5   395
    X66       CONSTR6   314
    X66       CONSTR7   538
    X66       CONSTR8   287
    X66       CONSTR9   964
    X66       CONSTR10  58
    X67       OBJ       976
    X67       CONSTR1   150
    X67       CONSTR2   775
    X67       CONSTR3   391
    X67       CONSTR4   632
    X67       CONSTR5   444
    X67       CONSTR6   893
    X67       CONSTR7   855
    X67       CONSTR8   29
    X67       CONSTR9   524
    X67       CONSTR10  603
    X68       OBJ       471
    X68       CONSTR1   514
    X68       CONSTR2   583
    X68       CONSTR3   228
    X68       CONSTR4   465
    X68       CONSTR5   99
    X68       CONSTR6   183
    X68       CONSTR7   605
    X68       CONSTR8   309
    X68       CONSTR9   827
    X68       CONSTR10  626
    X69       OBJ       599
    X69       CONSTR1   169
    X69       CONSTR2   658
    X69       CONSTR3   967
    X69       CONSTR4   79
    X69       CONSTR5   540
    X69       CONSTR6   317
    X69       CONSTR7   49
    X69       CONSTR8   820
    X69       CONSTR9   626
    X69       CONSTR10  973
    X70       OBJ       763
    X70       CONSTR1   186
    X70       CONSTR2   330
    X70       CONSTR3   834
    X70       CONSTR4   701
    X70       CONSTR5   691
    X70       CONSTR6   469
    X70       CONSTR7   428
    X70       CONSTR8   458
    X70       CONSTR9   292
    X70       CONSTR10  61
    X71       OBJ       863
    X71       CONSTR1   45
    X71       CONSTR2   938
    X71       CONSTR3   297
    X71       CONSTR4   889
    X71       CONSTR5   939
    X71       CONSTR6   113
    X71       CONSTR7   332
    X71       CONSTR8   415
    X71       CONSTR9   935
    X71       CONSTR10  350
    X72       OBJ       912
    X72       CONSTR1   140
    X72       CONSTR2   780
    X72       CONSTR3   371
    X72       CONSTR4   230
    X72       CONSTR5   573
    X72       CONSTR6   488
    X72       CONSTR7   348
    X72       CONSTR8   340
    X72       CONSTR9   840
    X72       CONSTR10  960
    X73       OBJ       942
    X73       CONSTR1   400
    X73       CONSTR2   174
    X73       CONSTR3   154
    X73       CONSTR4   430
    X73       CONSTR5   893
    X73       CONSTR6   614
    X73       CONSTR7   929
    X73       CONSTR8   185
    X73       CONSTR9   38
    X73       CONSTR10  849
    X74       OBJ       650
    X74       CONSTR1   957
    X74       CONSTR2   841
    X74       CONSTR3   350
    X74       CONSTR4   338
    X74       CONSTR5   325
    X74       CONSTR6   221
    X74       CONSTR7   202
    X74       CONSTR8   401
    X74       CONSTR9   800
    X74       CONSTR10  189
    X75       OBJ       710
    X75       CONSTR1   99
    X75       CONSTR2   378
    X75       CONSTR3   738
    X75       CONSTR4   568
    X75       CONSTR5   85
    X75       CONSTR6   321
    X75       CONSTR7   67
    X75       CONSTR8   598
    X75       CONSTR9   564
    X75       CONSTR10  192
    X76       OBJ       638
    X76       CONSTR1   167
    X76       CONSTR2   104
    X76       CONSTR3   713
    X76       CONSTR4   371
    X76       CONSTR5   650
    X76       CONSTR6   688
    X76       CONSTR7   33
    X76       CONSTR8   737
    X76       CONSTR9   982
    X76       CONSTR10  49
    X77       OBJ       493
    X77       CONSTR1   454
    X77       CONSTR2   106
    X77       CONSTR3   416
    X77       CONSTR4   161
    X77       CONSTR5   553
    X77       CONSTR6   718
    X77       CONSTR7   644
    X77       CONSTR8   246
    X77       CONSTR9   587
    X77       CONSTR10  597
    X78       OBJ       540
    X78       CONSTR1   391
    X78       CONSTR2   621
    X78       CONSTR3   647
    X78       CONSTR4   138
    X78       CONSTR5   722
    X78       CONSTR6   414
    X78       CONSTR7   447
    X78       CONSTR8   716
    X78       CONSTR9   326
    X78       CONSTR10  947
    X79       OBJ       818
    X79       CONSTR1   805
    X79       CONSTR2   247
    X79       CONSTR3   317
    X79       CONSTR4   540
    X79       CONSTR5   874
    X79       CONSTR6   726
    X79       CONSTR7   696
    X79       CONSTR8   767
    X79       CONSTR9   614
    X79       CONSTR10  645
    X80       OBJ       872
    X80       CONSTR1   942
    X80       CONSTR2   429
    X80       CONSTR3   664
    X80       CONSTR4   833
    X80       CONSTR5   106
    X80       CONSTR6   555
    X80       CONSTR7   750
    X80       CONSTR8   991
    X80       CONSTR9   477
    X80       CONSTR10  208
    X81       OBJ       803
    X81       CONSTR1   927
    X81       CONSTR2   82
    X81       CONSTR3   94
    X81       CONSTR4   569
    X81       CONSTR5   725
    X81       CONSTR6   170
    X81       CONSTR7   732
    X81       CONSTR8   503
    X81       CONSTR9   99
    X81       CONSTR10  99
    X82       OBJ       833
    X82       CONSTR1   420
    X82       CONSTR2   410
    X82       CONSTR3   884
    X82       CONSTR4   459
    X82       CONSTR5   324
    X82       CONSTR6   200
    X82       CONSTR7   337
    X82       CONSTR8   816
    X82       CONSTR9   607
    X82       CONSTR10  128
    X83       OBJ       906
    X83       CONSTR1   400
    X83       CONSTR2   297
    X83       CONSTR3   972
    X83       CONSTR4   825
    X83       CONSTR5   978
    X83       CONSTR6   749
    X83       CONSTR7   601
    X83       CONSTR8   622
    X83       CONSTR9   713
    X83       CONSTR10  773
    X84       OBJ       774
    X84       CONSTR1   81
    X84       CONSTR2   748
    X84       CONSTR3   608
    X84       CONSTR4   50
    X84       CONSTR5   145
    X84       CONSTR6   590
    X84       CONSTR7   242
    X84       CONSTR8   635
    X84       CONSTR9   102
    X84       CONSTR10  458
    X85       OBJ       468
    X85       CONSTR1   315
    X85       CONSTR2   127
    X85       CONSTR3   743
    X85       CONSTR4   172
    X85       CONSTR5   541
    X85       CONSTR6   321
    X85       CONSTR7   805
    X85       CONSTR8   214
    X85       CONSTR9   572
    X85       CONSTR10  612
    X86       OBJ       592
    X86       CONSTR1   890
    X86       CONSTR2   162
    X86       CONSTR3   592
    X86       CONSTR4   486
    X86       CONSTR5   58
    X86       CONSTR6   742
    X86       CONSTR7   641
    X86       CONSTR8   355
    X86       CONSTR9   218
    X86       CONSTR10  334
    X87       OBJ       617
    X87       CONSTR1   35
    X87       CONSTR2   607
    X87       CONSTR3   581
    X87       CONSTR4   134
    X87       CONSTR5   390
    X87       CONSTR6   506
    X87       CONSTR7   646
    X87       CONSTR8   929
    X87       CONSTR9   553
    X87       CONSTR10  421
    X88       OBJ       895
    X88       CONSTR1   736
    X88       CONSTR2   901
    X88       CONSTR3   479
    X88       CONSTR4   171
    X88       CONSTR5   641
    X88       CONSTR6   48
    X88       CONSTR7   442
    X88       CONSTR8   276
    X88       CONSTR9   507
    X88       CONSTR10  454
    X89       OBJ       747
    X89       CONSTR1   914
    X89       CONSTR2   922
    X89       CONSTR3   739
    X89       CONSTR4   298
    X89       CONSTR5   293
    X89       CONSTR6   845
    X89       CONSTR7   397
    X89       CONSTR8   93
    X89       CONSTR9   222
    X89       CONSTR10  292
    X90       OBJ       547
    X90       CONSTR1   822
    X90       CONSTR2   449
    X90       CONSTR3   698
    X90       CONSTR4   895
    X90       CONSTR5   29
    X90       CONSTR6   955
    X90       CONSTR7   389
    X90       CONSTR8   50
    X90       CONSTR9   14
    X90       CONSTR10  997
    X91       OBJ       670
    X91       CONSTR1   469
    X91       CONSTR2   198
    X91       CONSTR3   233
    X91       CONSTR4   898
    X91       CONSTR5   416
    X91       CONSTR6   232
    X91       CONSTR7   397
    X91       CONSTR8   189
    X91       CONSTR9   723
    X91       CONSTR10  935
    X92       OBJ       841
    X92       CONSTR1   1000
    X92       CONSTR2   561
    X92       CONSTR3   594
    X92       CONSTR4   32
    X92       CONSTR5   616
    X92       CONSTR6   563
    X92       CONSTR7   691
    X92       CONSTR8   395
    X92       CONSTR9   433
    X92       CONSTR10  132
    X93       OBJ       394
    X93       CONSTR1   27
    X93       CONSTR2   28
    X93       CONSTR3   60
    X93       CONSTR4   383
    X93       CONSTR5   510
    X93       CONSTR6   25
    X93       CONSTR7   861
    X93       CONSTR8   363
    X93       CONSTR9   27
    X93       CONSTR10  28
    X94       OBJ       586
    X94       CONSTR1   294
    X94       CONSTR2   82
    X94       CONSTR3   677
    X94       CONSTR4   845
    X94       CONSTR5   308
    X94       CONSTR6   463
    X94       CONSTR7   104
    X94       CONSTR8   347
    X94       CONSTR9   953
    X94       CONSTR10  671
    X95       OBJ       495
    X95       CONSTR1   380
    X95       CONSTR2   350
    X95       CONSTR3   433
    X95       CONSTR4   532
    X95       CONSTR5   571
    X95       CONSTR6   254
    X95       CONSTR7   943
    X95       CONSTR8   267
    X95       CONSTR9   268
    X95       CONSTR10  217
    X96       OBJ       545
    X96       CONSTR1   441
    X96       CONSTR2   429
    X96       CONSTR3   866
    X96       CONSTR4   746
    X96       CONSTR5   333
    X96       CONSTR6   202
    X96       CONSTR7   107
    X96       CONSTR8   66
    X96       CONSTR9   990
    X96       CONSTR10  245
    X97       OBJ       711
    X97       CONSTR1   397
    X97       CONSTR2   817
    X97       CONSTR3   248
    X97       CONSTR4   761
    X97       CONSTR5   929
    X97       CONSTR6   454
    X97       CONSTR7   850
    X97       CONSTR8   392
    X97       CONSTR9   18
    X97       CONSTR10  877
    X98       OBJ       411
    X98       CONSTR1   308
    X98       CONSTR2   77
    X98       CONSTR3   621
    X98       CONSTR4   421
    X98       CONSTR5   111
    X98       CONSTR6   188
    X98       CONSTR7   244
    X98       CONSTR8   57
    X98       CONSTR9   780
    X98       CONSTR10  75
    X99       OBJ       562
    X99       CONSTR1   354
    X99       CONSTR2   267
    X99       CONSTR3   783
    X99       CONSTR4   967
    X99       CONSTR5   130
    X99       CONSTR6   961
    X99       CONSTR7   661
    X99       CONSTR8   199
    X99       CONSTR9   35
    X99       CONSTR10  877
    X100      OBJ       589
    X100      CONSTR1   893
    X100      CONSTR2   224
    X100      CONSTR3   63
    X100      CONSTR4   369
    X100      CONSTR5   257
    X100      CONSTR6   530
    X100      CONSTR7   898
    X100      CONSTR8   350
    X100      CONSTR9   402
    X100      CONSTR10  118
    INT0001   'MARKER'  'INTEND'
RHS
    RHS10001  CONSTR1   12013
    RHS10001  CONSTR2   11822
    RHS10001  CONSTR3   12357
    RHS10001  CONSTR4   12501
    RHS10001  CONSTR5   11832
    RHS10001  CONSTR6   12166
    RHS10001  CONSTR7   12680
    RHS10001  CONSTR8   11692
    RHS10001  CONSTR9   12793
    RHS10001  CONSTR10  11481
BOUNDS
 BV BND       X1        .00
 BV BND       X2        .00
 BV BND       X3        .00
 BV BND       X4        .00
 BV BND       X5        .00
 BV BND       X6        .00
 BV BND       X7        .00
 BV BND       X8        .00
 BV BND       X9        .00
 BV BND       X10       .00
 BV BND       X11       .00
 BV BND       X12       .00
 BV BND       X13       .00
 BV BND       X14       .00
 BV BND       X15       .00
 BV BND       X16       .00
 BV BND       X17       .00
 BV BND       X18       .00
 BV BND       X19       .00
 BV BND       X20       .00
 BV BND       X21       .00
 BV BND       X22       .00
 BV BND       X23       .00
 BV BND       X24       .00
 BV BND       X25       .00
 BV BND       X26       .00
 BV BND       X27       .00
 BV BND       X28       .00
 BV BND       X29       .00
 BV BND       X30       .00
 BV BND       X31       .00
 BV BND       X32       .00
 BV BND       X33       .00
 BV BND       X34       .00
 BV BND       X35       .00
 BV BND       X36       .00
 BV BND       X37       .00
 BV BND       X38       .00
 BV BND       X39       .00
 BV BND       X40       .00
 BV BND       X41       .00
 BV BND       X42       .00
 BV BND       X43       .00
 BV BND       X44       .00
 BV BND       X45       .00
 BV BND       X46       .00
 BV BND       X47       .00
 BV BND       X48       .00
 BV BND       X49       .00
 BV BND       X50       .00
 BV BND       X51       .00
 BV BND       X52       .00
 BV BND       X53       .00
 BV BND       X54       .00
 BV BND       X55       .00
 BV BND       X56       .00
 BV BND       X57       .00
 BV BND       X58       .00
 BV BND       X59       .00
 BV BND       X60       .00
 BV BND       X61       .00
 BV BND       X62       .00
 BV BND       X63       .00
 BV BND       X64       .00
 BV BND       X65       .00
 BV BND       X66       .00
 BV BND       X67       .00
 BV BND       X68       .00
 BV BND       X69       .00
 BV BND       X70       .00
 BV BND       X71       .00
 BV BND       X72       .00
 BV BND       X73       .00
 BV BND       X74       .00
 BV BND       X75       .00
 BV BND       X76       .00
 BV BND       X77       .00
 BV BND       X78       .00
 BV BND       X79       .00
 BV BND       X80       .00
 BV BND       X81       .00
 BV BND       X82       .00
 BV BND       X83       .00
 BV BND       X84       .00
 BV BND       X85       .00
 BV BND       X86       .00
 BV BND       X87       .00
 BV BND       X88       .00
 BV BND       X89       .00
 BV BND       X90       .00
 BV BND       X91       .00
 BV BND       X92       .00
 BV BND       X93       .00
 BV BND       X94       .00
 BV BND       X95       .00
 BV BND       X96       .00
 BV BND       X97       .00
 BV BND       X98       .00
 BV BND       X99       .00
 BV BND       X100      .00
ENDATA
